Route #1: 27 10 7 11 50 46
Route #2: 14 20 19 35 49 1 36 39
Route #3: 4 42 34 6 64 40 44 53
Route #4: 60 3 57 30 61 62
Route #5: 9 48 63 25 21 5
Route #6: 28 13
Route #7: 12 45 52 22 54 55 56 15 58
Route #8: 31 18 26 2 47 33
Route #9: 32 65 37 23 8 51 66
Route #10: 17 38 29 24 59 41 16 43
Cost 1034
Time 0.163488
